NAME: tsp20_16
COMMENT: 20-tsp problem (Padberg/Rinaldi)
TYPE: TSP
DIMENSION: 20
EDGE_WEIGHT_TYPE : EUC_2D
NODE_COORD_SECTION
1 17 35
2 24 22
3 23 17
4 5 28
5 34 23
6 38 3
7 20 19
8 11 17
9 33 8
10 17 3
11 27 0
12 32 1
13 22 31
14 22 20
15 34 7
16 24 31
17 27 9
18 27 19
19 7 31
20 35 33
